15
2 0 6
2 1 2
3 0 2
3 1 1
3 2 4
5 2 5
5 4 5
6 0 3
6 1 3
6 3 4
7 0 6
7 1 6
7 2 7
7 6 7
8 1 2
8 2 3
8 4 4
8 7 3
9 2 5
9 3 2
9 5 7
9 8 1
10 0 7
10 1 3
10 5 7
10 7 7
10 8 2
11 3 7
11 4 2
11 5 2
11 7 7
12 1 5
12 2 3
12 4 2
12 5 4
12 7 7
12 8 3
12 9 7
12 10 2
12 11 6
13 1 3
13 2 3
13 3 2
13 4 7
13 6 1
13 7 1
13 8 6
13 10 2
13 11 6
13 12 7
14 1 4
14 2 6
14 3 5
14 4 7
14 5 2
14 10 4
14 11 5
14 12 7
14 13 6
